10,6	0,0	6,2	6,6	0,0	0,0	0,0	0,0	0,0	18,3
14,6	8,7	0,0	7,1	16,2	0,0	0,0	9,7	0,0	0,0
0,0	0,0	5,3	0,0	11,4	11,5	0,0	0,0	5,1	0,0
17,1	0,0	19,6	0,0	0,0	0,0	9,7	0,0	0,0	0,0
0,0	8,3	0,0	6,4	5,2	0,0	0,0	12,8	0,0	0,0
0,0	5,8	12,7	0,0	6,7	15,8	0,0	0,0	11,7	0,0
0,0	15,5	0,0	15,9	0,0	0,0	19,0	0,0	0,0	11,9
6,3	0,0	11,2	0,0	0,0	0,0	0,0	0,0	0,0	15,8
0,0	14,1	0,0	19,5	8,9	0,0	0,0	9,8	0,0	0,0
0,0	0,0	15,8	0,0	0,0	12,5	18,4	0,0	0,0	15,9
									
4,7	4,7	4,1	3,0	4,6	4,3	2,9	4,0	4,1	4,5
